DIMACS_lns/graph-1000-464.col
p edge 1000 1824
e 1 935
e 1 914
e 1 847
e 2 341
e 2 263
e 2 369
e 2 211
e 2 656
e 4 107
e 4 739
e 4 44
e 4 918
e 4 254
e 7 577
e 7 994
e 7 273
e 7 746
e 7 163
e 9 553
e 9 138
e 9 623
e 9 637
e 9 688
e 10 456
e 10 262
e 10 520
e 10 270
e 10 797
e 10 922
e 10 264
e 11 499
e 11 227
e 11 481
e 12 555
e 12 136
e 12 67
e 13 42
e 13 897
e 13 606
e 13 547
e 13 465
e 14 623
e 14 950
e 14 819
e 14 300
e 14 579
e 15 615
e 15 543
e 15 589
e 15 761
e 15 51
e 15 564
e 15 696
e 16 717
e 16 219
e 16 769
e 18 405
e 18 72
e 18 243
e 18 49
e 19 63
e 19 415
e 19 197
e 19 708
e 19 357
e 19 250
e 20 973
e 20 696
e 20 799
e 20 681
e 21 815
e 21 335
e 21 553
e 22 485
e 22 512
e 22 165
e 24 825
e 24 761
e 24 279
e 24 978
e 29 972
e 29 803
e 29 584
e 29 671
e 29 753
e 29 424
e 29 789
e 31 484
e 31 781
e 31 717
e 31 325
e 33 256
e 33 517
e 33 678
e 34 305
e 34 817
e 34 696
e 34 743
e 34 698
e 34 913
e 34 84
e 35 502
e 35 752
e 35 761
e 35 326
e 36 593
e 36 514
e 36 685
e 36 657
e 37 355
e 37 575
e 37 402
e 37 867
e 37 834
e 38 790
e 38 798
e 38 515
e 38 59
e 40 319
e 40 883
e 40 479
e 40 572
e 40 83
e 41 175
e 41 811
e 41 60
e 41 799
e 41 638
e 41 981
e 42 641
e 42 929
e 42 892
e 43 484
e 43 275
e 43 434
e 43 518
e 43 358
e 43 691
e 43 527
e 43 313
e 44 272
e 44 283
e 44 943
e 44 559
e 44 995
e 44 78
e 48 169
e 48 710
e 48 986
e 48 268
e 48 177
e 48 818
e 48 882
e 48 543
e 49 77
e 49 892
e 49 449
e 49 353
e 51 279
e 51 994
e 51 515
e 51 546
e 51 74
e 52 907
e 52 240
e 52 719
e 52 117
e 54 364
e 54 390
e 54 293
e 55 941
e 55 964
e 55 364
e 55 596
e 56 112
e 56 913
e 56 64
e 56 1000
e 57 732
e 57 371
e 57 220
e 57 523
e 57 477
e 58 840
e 58 847
e 58 402
e 58 259
e 59 822
e 59 939
e 59 598
e 60 478
e 60 157
e 62 116
e 62 843
e 62 567
e 62 705
e 62 420
e 62 419
e 62 557
e 63 635
e 63 704
e 63 386
e 63 302
e 63 485
e 63 652
e 63 671
e 64 655
e 64 912
e 64 877
e 64 682
e 64 973
e 65 832
e 65 295
e 65 837
e 65 496
e 65 393
e 66 551
e 66 672
e 66 484
e 66 386
e 67 806
e 67 673
e 67 102
e 68 93
e 68 453
e 68 610
e 68 446
e 68 385
e 68 550
e 68 161
e 69 290
e 69 818
e 69 398
e 69 410
e 70 420
e 70 531
e 70 630
e 70 790
e 71 89
e 71 999
e 71 217
e 71 818
e 72 176
e 72 999
e 72 891
e 72 188
e 72 712
e 74 881
e 74 906
e 75 178
e 75 780
e 75 272
e 77 917
e 77 405
e 78 863
e 78 283
e 78 418
e 80 768
e 80 775
e 80 489
e 80 881
e 80 339
e 81 343
e 81 360
e 81 175
e 81 646
e 83 500
e 83 394
e 83 302
e 84 399
e 84 390
e 84 604
e 85 988
e 85 131
e 85 971
e 86 575
e 86 775
e 86 268
e 86 605
e 88 489
e 88 929
e 88 546
e 89 198
e 89 867
e 89 444
e 89 719
e 89 364
e 90 997
e 90 703
e 90 924
e 92 936
e 92 610
e 92 593
e 93 553
e 93 599
e 93 401
e 93 295
e 93 240
e 93 169
e 93 742
e 93 801
e 98 243
e 98 491
e 98 811
e 98 437
e 100 223
e 100 398
e 100 161
e 101 387
e 101 775
e 101 309
e 102 412
e 102 748
e 103 205
e 103 836
e 103 942
e 103 799
e 104 526
e 104 680
e 104 496
e 105 706
e 105 763
e 105 932
e 105 201
e 105 240
e 105 390
e 106 792
e 106 180
e 106 168
e 107 708
e 107 711
e 108 556
e 108 601
e 108 540
e 112 259
e 112 481
e 112 583
e 112 620
e 112 587
e 114 285
e 114 547
e 114 743
e 114 916
e 115 503
e 115 877
e 115 647
e 116 617
e 116 641
e 116 797
e 116 217
e 116 328
e 116 364
e 116 389
e 116 430
e 117 314
e 117 596
e 117 705
e 117 615
e 118 572
e 118 201
e 118 416
e 118 234
e 118 547
e 119 985
e 119 125
e 119 443
e 119 516
e 119 942
e 119 574
e 122 458
e 122 224
e 122 248
e 123 131
e 123 605
e 123 380
e 124 709
e 124 665
e 124 408
e 125 471
e 125 1000
e 125 389
e 125 298
e 125 688
e 125 187
e 126 648
e 126 472
e 126 582
e 126 710
e 127 356
e 127 130
e 127 897
e 127 967
e 127 439
e 127 958
e 128 270
e 128 133
e 128 291
e 129 837
e 129 361
e 129 700
e 129 674
e 129 871
e 130 935
e 130 540
e 130 632
e 131 846
e 131 394
e 131 177
e 131 602
e 132 576
e 132 391
e 132 584
e 132 196
e 132 886
e 132 799
e 133 913
e 133 876
e 134 998
e 134 379
e 134 346
e 136 546
e 136 221
e 136 846
e 136 775
e 136 518
e 136 392
e 138 352
e 138 681
e 141 898
e 141 797
e 141 314
e 142 263
e 142 195
e 142 929
e 142 221
e 142 474
e 143 831
e 143 235
e 143 263
e 143 457
e 143 605
e 143 232
e 147 804
e 147 210
e 147 965
e 147 929
e 148 324
e 148 423
e 148 232
e 149 600
e 149 336
e 149 266
e 149 964
e 149 158
e 149 296
e 150 732
e 150 309
e 150 947
e 151 252
e 151 516
e 151 811
e 152 324
e 152 218
e 152 401
e 152 583
e 153 526
e 153 882
e 153 405
e 156 293
e 156 371
e 156 972
e 156 816
e 157 817
e 157 656
e 157 434
e 157 920
e 158 247
e 158 534
e 158 957
e 158 791
e 159 872
e 159 258
e 159 221
e 159 864
e 159 657
e 160 664
e 160 576
e 160 626
e 161 339
e 161 510
e 161 805
e 161 595
e 163 441
e 163 769
e 163 556
e 165 792
e 165 177
e 166 795
e 166 446
e 166 636
e 166 579
e 166 356
e 168 581
e 168 207
e 168 916
e 169 695
e 169 855
e 169 880
e 169 271
e 169 906
e 170 364
e 170 399
e 170 461
e 172 939
e 172 918
e 172 595
e 172 654
e 173 408
e 173 792
e 173 296
e 173 255
e 173 761
e 174 657
e 174 178
e 174 352
e 175 606
e 175 576
e 175 420
e 175 428
e 175 842
e 176 593
e 176 777
e 177 247
e 177 214
e 177 982
e 177 815
e 178 256
e 178 421
e 178 652
e 179 582
e 179 840
e 179 575
e 179 220
e 180 649
e 180 591
e 180 963
e 180 187
e 180 726
e 180 606
e 180 918
e 181 407
e 181 297
e 181 203
e 183 935
e 183 962
e 183 917
e 184 361
e 184 522
e 184 600
e 184 918
e 184 200
e 185 896
e 185 399
e 185 649
e 186 941
e 186 384
e 186 841
e 186 490
e 186 386
e 187 352
e 187 724
e 187 757
e 188 744
e 188 985
e 188 787
e 188 999
e 189 656
e 189 787
e 189 536
e 189 218
e 189 746
e 189 546
e 189 199
e 194 748
e 194 528
e 194 331
e 194 937
e 194 690
e 194 423
e 195 535
e 195 871
e 196 495
e 196 296
e 196 798
e 196 827
e 196 404
e 196 553
e 196 528
e 196 587
e 197 768
e 197 299
e 198 789
e 198 490
e 198 573
e 198 752
e 199 975
e 199 744
e 199 589
e 199 435
e 200 933
e 200 976
e 200 859
e 201 212
e 201 477
e 201 203
e 201 895
e 201 282
e 201 599
e 201 374
e 202 933
e 202 703
e 202 976
e 202 275
e 202 690
e 202 913
e 202 225
e 202 811
e 203 601
e 203 880
e 203 620
e 203 419
e 203 813
e 203 980
e 203 321
e 205 929
e 205 635
e 206 215
e 206 726
e 206 983
e 206 250
e 207 221
e 207 561
e 207 531
e 208 562
e 208 499
e 208 505
e 208 692
e 209 993
e 209 393
e 209 816
e 209 945
e 209 213
e 209 291
e 209 756
e 210 918
e 210 970
e 210 521
e 211 888
e 211 461
e 211 819
e 211 666
e 211 311
e 211 405
e 212 651
e 212 232
e 212 422
e 212 585
e 213 730
e 213 393
e 213 834
e 214 946
e 214 863
e 215 968
e 215 680
e 215 243
e 215 745
e 215 520
e 217 495
e 217 240
e 217 513
e 217 329
e 218 608
e 218 489
e 218 509
e 218 422
e 218 247
e 219 381
e 219 822
e 219 434
e 220 840
e 220 650
e 221 497
e 221 333
e 221 466
e 222 772
e 222 788
e 222 822
e 222 483
e 222 743
e 222 992
e 223 418
e 223 997
e 223 911
e 223 234
e 224 732
e 224 779
e 224 856
e 225 336
e 225 608
e 226 602
e 226 983
e 226 959
e 226 967
e 227 665
e 227 911
e 228 239
e 228 618
e 228 241
e 228 496
e 228 625
e 228 437
e 231 783
e 231 670
e 231 775
e 231 351
e 231 342
e 232 379
e 232 327
e 232 385
e 232 478
e 232 905
e 234 346
e 234 331
e 234 600
e 235 948
e 235 317
e 235 821
e 239 630
e 239 845
e 239 661
e 239 299
e 239 842
e 239 352
e 240 444
e 240 794
e 240 654
e 241 453
e 241 826
e 241 823
e 242 915
e 242 854
e 242 358
e 243 770
e 243 326
e 243 636
e 243 823
e 245 997
e 245 542
e 245 822
e 245 686
e 245 841
e 245 295
e 246 629
e 246 264
e 246 386
e 247 342
e 247 684
e 247 707
e 248 305
e 248 815
e 248 537
e 249 497
e 249 620
e 249 457
e 250 564
e 250 814
e 250 503
e 252 790
e 252 910
e 252 503
e 252 582
e 253 795
e 253 872
e 253 273
e 253 931
e 253 290
e 253 513
e 254 651
e 254 888
e 254 565
e 254 639
e 254 491
e 254 375
e 255 421
e 255 532
e 255 374
e 255 920
e 256 755
e 256 668
e 256 645
e 257 656
e 257 777
e 257 973
e 257 429
e 258 726
e 258 387
e 258 532
e 259 624
e 259 925
e 259 536
e 262 696
e 262 339
e 262 335
e 263 991
e 263 669
e 263 419
e 263 514
e 264 273
e 264 508
e 265 921
e 265 965
e 265 652
e 265 699
e 265 460
e 265 680
e 266 787
e 266 957
e 266 665
e 268 676
e 268 411
e 270 854
e 270 555
e 270 942
e 270 398
e 270 553
e 270 714
e 271 531
e 271 474
e 271 290
e 272 486
e 272 655
e 273 449
e 273 699
e 273 645
e 275 675
e 275 964
e 276 436
e 276 805
e 276 808
e 278 586
e 278 390
e 278 889
e 278 336
e 279 799
e 279 502
e 279 794
e 280 324
e 280 491
e 280 957
e 280 341
e 282 724
e 282 637
e 282 618
e 283 538
e 283 372
e 283 896
e 283 566
e 285 605
e 285 882
e 285 665
e 285 618
e 285 374
e 285 500
e 285 871
e 285 479
e 285 304
e 286 743
e 286 722
e 286 390
e 289 625
e 289 876
e 289 351
e 289 706
e 290 417
e 290 606
e 290 882
e 290 416
e 291 449
e 291 846
e 291 890
e 293 627
e 293 618
e 294 818
e 294 682
e 294 643
e 294 629
e 294 744
e 295 887
e 295 319
e 296 411
e 296 311
e 297 500
e 297 917
e 298 416
e 298 785
e 298 358
e 299 755
e 299 485
e 299 384
e 299 574
e 300 446
e 300 698
e 302 552
e 302 435
e 302 922
e 302 834
e 304 747
e 304 964
e 305 752
e 307 743
e 307 865
e 307 428
e 307 959
e 308 785
e 308 410
e 308 914
e 309 657
e 309 919
e 309 346
e 309 876
e 309 698
e 309 366
e 309 933
e 311 383
e 311 958
e 311 918
e 311 643
e 311 342
e 312 755
e 312 551
e 312 739
e 312 358
e 313 878
e 313 856
e 314 997
e 314 329
e 314 984
e 314 981
e 315 714
e 315 671
e 315 546
e 315 698
e 316 324
e 316 328
e 316 866
e 317 391
e 317 911
e 317 497
e 317 676
e 317 983
e 319 648
e 319 336
e 321 439
e 321 878
e 325 385
e 325 598
e 325 466
e 325 530
e 325 863
e 325 722
e 326 804
e 326 700
e 327 1000
e 327 832
e 327 893
e 328 963
e 328 451
e 328 455
e 328 856
e 328 548
e 328 834
e 329 437
e 329 648
e 329 883
e 329 657
e 329 370
e 329 615
e 330 557
e 330 395
e 330 718
e 331 906
e 331 674
e 333 515
e 333 607
e 333 504
e 333 707
e 333 968
e 333 962
e 334 526
e 334 795
e 334 864
e 334 599
e 334 991
e 334 803
e 335 655
e 335 809
e 335 801
e 335 714
e 335 556
e 335 894
e 336 661
e 336 574
e 336 393
e 338 519
e 338 809
e 338 937
e 338 430
e 339 688
e 339 562
e 339 393
e 339 434
e 341 402
e 341 650
e 341 369
e 342 940
e 342 383
e 342 565
e 342 730
e 343 864
e 343 746
e 343 703
e 345 697
e 345 693
e 345 812
e 345 484
e 349 491
e 349 452
e 349 385
e 349 353
e 349 767
e 349 585
e 349 405
e 351 690
e 351 890
e 351 637
e 351 625
e 352 776
e 352 553
e 353 635
e 353 583
e 353 649
e 353 692
e 354 965
e 354 946
e 354 512
e 355 891
e 355 494
e 355 924
e 355 534
e 355 474
e 356 708
e 357 654
e 357 787
e 357 950
e 357 849
e 357 857
e 358 985
e 358 540
e 358 470
e 358 803
e 359 530
e 359 579
e 359 505
e 360 518
e 360 428
e 360 826
e 360 828
e 360 455
e 361 561
e 361 671
e 361 761
e 362 704
e 362 963
e 362 807
e 362 797
e 364 629
e 364 490
e 366 443
e 366 780
e 366 387
e 368 973
e 368 993
e 368 607
e 368 537
e 368 913
e 368 407
e 369 643
e 369 920
e 369 863
e 370 930
e 370 698
e 370 502
e 370 482
e 371 456
e 371 471
e 371 610
e 372 980
e 372 474
e 372 650
e 374 857
e 374 795
e 374 510
e 375 917
e 375 861
e 375 500
e 379 874
e 379 893
e 379 776
e 379 848
e 379 467
e 380 797
e 380 503
e 380 458
e 381 921
e 381 441
e 381 482
e 381 573
e 382 791
e 382 491
e 382 871
e 383 412
e 383 999
e 384 458
e 384 415
e 384 892
e 384 880
e 385 710
e 385 625
e 385 430
e 385 624
e 385 764
e 386 730
e 386 457
e 386 999
e 387 626
e 387 744
e 387 692
e 387 982
e 389 501
e 390 968
e 390 597
e 390 927
e 390 673
e 391 598
e 391 836
e 391 757
e 391 848
e 391 823
e 391 654
e 391 528
e 391 394
e 391 926
e 392 411
e 392 451
e 392 926
e 392 522
e 392 534
e 393 931
e 393 451
e 393 884
e 394 481
e 395 968
e 395 783
e 398 538
e 398 654
e 398 583
e 398 585
e 398 843
e 398 941
e 399 450
e 400 849
e 400 880
e 400 940
e 401 818
e 401 904
e 401 925
e 401 785
e 401 598
e 402 732
e 402 986
e 404 722
e 404 700
e 404 785
e 404 674
e 405 523
e 405 864
e 407 409
e 407 948
e 407 900
e 408 831
e 408 575
e 409 985
e 409 937
e 409 984
e 409 840
e 409 863
e 409 756
e 409 649
e 410 783
e 410 979
e 411 932
e 411 821
e 412 519
e 413 924
e 413 842
e 413 792
e 415 744
e 416 732
e 417 881
e 417 906
e 417 681
e 417 701
e 417 903
e 418 738
e 418 692
e 418 590
e 419 588
e 420 855
e 421 806
e 422 716
e 422 848
e 423 646
e 423 584
e 424 547
e 424 816
e 424 501
e 424 809
e 428 666
e 429 882
e 429 685
e 429 999
e 430 995
e 430 600
e 430 976
e 430 822
e 433 668
e 433 509
e 433 794
e 433 450
e 434 627
e 434 469
e 435 678
e 435 735
e 435 677
e 436 543
e 436 918
e 436 617
e 437 853
e 439 804
e 439 457
e 439 876
e 439 930
e 441 758
e 443 870
e 444 811
e 444 910
e 444 764
e 446 877
e 446 895
e 446 863
e 446 573
e 449 811
e 449 840
e 450 882
e 450 467
e 450 949
e 451 603
e 451 953
e 451 854
e 452 816
e 452 767
e 453 654
e 455 949
e 455 943
e 455 979
e 456 826
e 457 491
e 458 500
e 458 620
e 458 661
e 460 917
e 460 717
e 460 958
e 460 562
e 460 929
e 461 684
e 461 495
e 461 630
e 461 724
e 462 471
e 462 706
e 462 650
e 462 494
e 462 670
e 465 848
e 465 605
e 466 915
e 467 788
e 467 881
e 469 604
e 469 562
e 469 962
e 470 779
e 470 768
e 472 861
e 472 972
e 472 586
e 472 753
e 472 532
e 472 567
e 474 816
e 477 977
e 477 946
e 477 537
e 478 650
e 478 851
e 479 735
e 479 757
e 479 937
e 479 636
e 479 891
e 480 668
e 480 618
e 480 636
e 481 809
e 481 678
e 481 817
e 482 747
e 482 913
e 482 643
e 483 920
e 483 559
e 483 918
e 483 509
e 483 512
e 485 924
e 486 907
e 486 823
e 486 596
e 489 777
e 490 834
e 491 692
e 491 712
e 491 585
e 491 845
e 494 947
e 495 915
e 495 930
e 495 925
e 495 703
e 496 620
e 498 999
e 498 534
e 498 980
e 499 861
e 499 586
e 499 611
e 500 834
e 501 602
e 501 978
e 501 811
e 502 718
e 502 882
e 502 872
e 503 991
e 504 550
e 504 664
e 504 833
e 505 703
e 505 649
e 505 846
e 508 977
e 508 890
e 508 514
e 510 993
e 510 832
e 512 764
e 512 910
e 513 632
e 513 741
e 515 933
e 515 816
e 516 993
e 516 672
e 516 758
e 516 918
e 517 706
e 517 677
e 517 763
e 518 991
e 518 741
e 519 685
e 520 861
e 521 763
e 521 557
e 522 742
e 522 564
e 522 661
e 523 674
e 523 854
e 525 915
e 525 675
e 525 657
e 526 730
e 527 924
e 527 922
e 527 813
e 527 819
e 528 724
e 528 711
e 528 868
e 528 848
e 530 992
e 530 993
e 530 638
e 531 891
e 531 664
e 532 537
e 534 698
e 535 661
e 535 669
e 536 647
e 537 1000
e 537 710
e 538 936
e 538 714
e 540 806
e 540 625
e 542 752
e 542 970
e 543 994
e 543 670
e 543 562
e 546 947
e 546 942
e 546 943
e 546 737
e 547 597
e 547 756
e 547 772
e 548 617
e 548 752
e 548 668
e 548 936
e 550 709
e 551 814
e 552 603
e 552 581
e 553 936
e 553 851
e 555 756
e 555 880
e 556 611
e 559 737
e 559 574
e 559 597
e 559 940
e 561 648
e 561 639
e 562 776
e 562 706
e 564 983
e 564 668
e 564 898
e 564 931
e 565 589
e 565 825
e 565 981
e 566 665
e 566 828
e 567 924
e 567 856
e 567 925
e 567 718
e 570 926
e 570 581
e 570 911
e 570 894
e 570 788
e 570 812
e 572 958
e 572 828
e 573 676
e 573 893
e 573 988
e 573 606
e 575 674
e 575 867
e 575 891
e 576 757
e 577 917
e 577 965
e 579 947
e 579 801
e 579 889
e 579 834
e 581 749
e 581 846
e 581 597
e 582 983
e 582 697
e 583 745
e 584 984
e 584 761
e 585 662
e 585 700
e 585 686
e 586 926
e 587 670
e 587 593
e 587 630
e 587 973
e 587 649
e 588 703
e 588 803
e 588 743
e 588 876
e 589 920
e 589 598
e 589 716
e 589 822
e 590 826
e 590 913
e 591 745
e 591 962
e 593 904
e 593 757
e 593 694
e 593 799
e 593 930
e 595 711
e 595 897
e 595 799
e 598 857
e 598 747
e 598 697
e 599 924
e 600 607
e 601 661
e 601 770
e 601 710
e 602 949
e 603 776
e 604 941
e 604 646
e 604 895
e 604 699
e 604 797
e 604 712
e 605 851
e 606 982
e 607 910
e 607 857
e 607 919
e 607 779
e 607 878
e 608 941
e 608 747
e 611 959
e 613 826
e 613 854
e 613 996
e 613 981
e 613 985
e 618 867
e 618 678
e 618 967
e 623 700
e 623 943
e 624 820
e 625 908
e 626 991
e 627 772
e 627 793
e 629 788
e 630 988
e 632 813
e 632 996
e 635 883
e 636 985
e 636 686
e 637 668
e 638 735
e 639 767
e 641 958
e 643 646
e 645 896
e 646 919
e 647 992
e 647 925
e 649 919
e 649 874
e 649 819
e 651 655
e 651 903
e 651 892
e 651 818
e 652 668
e 654 845
e 654 848
e 654 948
e 654 685
e 655 806
e 656 828
e 657 917
e 657 812
e 657 904
e 661 777
e 661 998
e 662 828
e 662 672
e 664 826
e 664 695
e 665 800
e 665 953
e 666 988
e 668 746
e 668 706
e 669 965
e 670 732
e 670 741
e 673 945
e 674 887
e 674 933
e 674 851
e 675 691
e 676 847
e 677 853
e 680 975
e 681 907
e 681 985
e 682 836
e 684 881
e 684 726
e 684 876
e 686 776
e 691 816
e 691 933
e 692 897
e 693 820
e 693 846
e 694 832
e 694 981
e 694 743
e 695 913
e 695 855
e 695 888
e 696 906
e 696 730
e 698 749
e 698 950
e 698 988
e 700 983
e 700 757
e 701 732
e 701 828
e 701 948
e 704 962
e 705 744
e 705 868
e 705 849
e 706 906
e 706 962
e 707 714
e 707 970
e 707 988
e 708 932
e 708 926
e 709 797
e 709 740
e 709 836
e 709 870
e 711 880
e 711 840
e 712 900
e 712 975
e 712 761
e 714 799
e 716 889
e 716 837
e 717 900
e 719 914
e 724 863
e 724 820
e 726 798
e 735 809
e 737 995
e 737 779
e 738 892
e 738 927
e 739 826
e 740 809
e 740 904
e 740 832
e 741 992
e 742 995
e 743 837
e 743 848
e 744 996
e 744 785
e 745 917
e 745 834
e 746 908
e 748 775
e 749 767
e 749 908
e 749 800
e 753 912
e 755 780
e 755 986
e 758 917
e 758 851
e 761 821
e 763 795
e 769 971
e 770 808
e 772 957
e 775 942
e 777 943
e 779 991
e 781 870
e 781 936
e 781 895
e 781 886
e 783 841
e 788 892
e 789 851
e 791 927
e 792 925
e 793 847
e 793 820
e 794 937
e 798 855
e 799 833
e 800 996
e 800 884
e 801 932
e 804 896
e 804 887
e 804 959
e 805 846
e 805 920
e 807 971
e 807 847
e 807 864
e 808 937
e 811 843
e 814 854
e 815 861
e 816 946
e 820 949
e 821 959
e 822 1000
e 822 865
e 825 841
e 827 840
e 827 872
e 828 919
e 828 977
e 831 970
e 832 988
e 833 978
e 833 998
e 837 886
e 842 868
e 843 948
e 845 905
e 846 957
e 846 967
e 847 882
e 849 995
e 853 950
e 854 898
e 855 945
e 856 905
e 859 941
e 859 884
e 865 950
e 865 894
e 866 946
e 866 868
e 868 895
e 868 980
e 871 900
e 874 916
e 874 992
e 877 895
e 877 992
e 878 892
e 883 911
e 888 959
e 891 950
e 894 959
e 898 910
e 903 972
e 905 939
e 906 979
e 906 935
e 907 947
e 907 996
e 908 953
e 912 976
e 919 983
e 921 946
e 924 998
e 929 993
e 932 984
e 935 997
e 941 958
e 947 997
e 949 988
e 976 993
e 977 984
e 978 984
